# This is the input file of FORTRAN77 program "spgrn2012" for calculating
# synthetic Green's functions of a self-gravitating, spherically symmetric,
# isotropic and viscoelastic earth.
#
# by
# Rongjiang  Wang <wang@gfz-potsdam.de>
# Helmholtz-Centre Potsdam
# GFZ German Reseach Centre for Geosciences
# Telegrafenberg, D-14473 Potsdam, Germany
#
# Last modified: Potsdam, Jan, 2012
#
# = = = = = = = = = = = = = = = = = = = = = = = = = = = = = = = = = = = = = = = = = = = = =
# If not specified, SI Unit System is used overall!
#
# Coordinate systems:
# spherical (r,t,p) with r = radial,
#                        t = co-latitude,
#                        p = east longitude.
# = = = = = = = = = = = = = = = = = = = = = = = = = = = = = = = = = = = = = = = = = = = = =
#
#	UNIFORM RECEIVER DEPTH
#	======================
# 1. uniform receiver depth [km]
#-------------------------------------------------------------------------------------------
    0.00
#-------------------------------------------------------------------------------------------
#
#	TIME (FREQUENCY) SAMPLING
#	=========================
# 1. time window [s] and sampling interval [s]
# 2. max. frequency [Hz] of Green's functions
# 3. max. slowness [s/km] of Green's functions (if <= 0.0, then complete wave field
#    including static deformation will be calculated)
# 4. anti-aliasing factor (> 0 & < 1), if it is <= 0 or >= 1/e (~ 0.4), then
#    default value of 1/e is used (e.g., 0.1 = alias phases will be suppressed
#    to 10% of their original amplitude)
#
#    Note: The computation effort increases linearly the time window and
#          quadratically with the cut-off frequency. 45ÐÐ 0.2 %AK135       1 % Crust1.0
#-------------------------------------------------------------------------------------------
    511.75   0.25
     0.60
     0.00
     1
#-------------------------------------------------------------------------------------------
#
#	SELF-GRAVITATING EFFECT
#	=======================
# 1. the critical frequency [Hz] and the critical harmonic degree, below which
#    the self-gravitating effect should be included
#-------------------------------------------------------------------------------------------
    0.0      0
#-------------------------------------------------------------------------------------------
#
#	WAVE TYPES
#	==========
# 1. selection (1/0 = yes/no) of spheroidal modes (P-SV waves), selection of toroidal modes
#    (SH waves)
#-------------------------------------------------------------------------------------------
    1     1
#-------------------------------------------------------------------------------------------
#	SPECTRAL GREEN'S FUNCTIONS
#	==========================
# 1. directory for spectral Green's functions
# 2. number of discrete source depths
# 3. list of source depths [km], source radius [km], the respective file names of Green's
#    functions and switch number (0/1) (0 = spectra of Green's functions for this depth
#    exist already, 1 = need to be calculated or updated.
#    Note: update is required if any of the above parameters is changed)
#-------------------------------------------------------------------------------------------
    'F:\Automatic Inversion Codes\green\spec_func\'
    50
    1.0  1.0  'grn_d1'   1	
    3.0  1.0  'grn_d3'   1 
    5.0  1.0  'grn_d5'   1 	
    7.0  1.0  'grn_d7'   1
    9.0  1.0  'grn_d9'   1   
    11.0  1.0  'grn_d11'   1	
    13.0  1.0  'grn_d13'   1 
    15.0  1.0  'grn_d15'   1	
    17.0  1.0  'grn_d17'   1
    19.0  1.0  'grn_d19'   1    
    21.0  1.0  'grn_d21'   1	
    23.0  1.0  'grn_d23'   1  
    25.0  1.0  'grn_d25'   1	
    27.0  1.0  'grn_d27'   1
    29.0  1.0  'grn_d29'   1 
    31.0  1.0  'grn_d31'   1	
    33.0  1.0  'grn_d33'   1 
    35.0  1.0  'grn_d35'   1	
    37.0  1.0  'grn_d37'   1
    39.0  1.0  'grn_d39'   1 
    41.0  1.0  'grn_d41'   1
    43.0  1.0  'grn_d43'   1  
    45.0  1.0  'grn_d45'   1
    47.0  1.0  'grn_d47'   1
    49.0  1.0  'grn_d49'   1
    51.0  1.0  'grn_d51'   1	
    53.0  1.0  'grn_d53'   1 
    55.0  1.0  'grn_d55'   1 	
    57.0  1.0  'grn_d57'   1
    59.0  1.0  'grn_d59'   1    
    61.0  1.0  'grn_d61'   1	
    63.0  1.0  'grn_d63'   1
    65.0  1.0  'grn_d65'   1   	
    67.0  1.0  'grn_d67'   1
    69.0  1.0  'grn_d69'   1   
    71.0  1.0  'grn_d71'   1	
    73.0  1.0  'grn_d73'   1 
    75.0  1.0  'grn_d75'   1	
    77.0  1.0  'grn_d77'   1
    79.0  1.0  'grn_d79'   1 
    81.0  1.0  'grn_d81'   1	
    83.0  1.0  'grn_d83'   1   
    85.0  1.0  'grn_d85'   1	
    87.0  1.0  'grn_d87'   1
    89.0  1.0  'grn_d89'   1  
    91.0  1.0  'grn_d91'   1	
    93.0  1.0  'grn_d93'   1  
    95.0  1.0  'grn_d95'   1	
    97.0  1.0  'grn_d97'   1
    99.0  1.0  'grn_d99'   1 		
#-------------------------------------------------------------------------------------------
#	SPACE-TIME DOMAIN GREEN'S FUNCTIONS
#	===================================
# 1. directory for space-time domain Green's functions
# 2. documentation file name
# 3. output time window [sec] and sampling interval [s]
# 4. parameters for time reduction: t0[s], v0[km/s]
#    (seismograms start with time = t0+epicentral_distance[km]/v0)
# 5. source wavelet (square half-sinusoid) duration [s]
# 6. selection of order of Butterworth low-pass filter (if <= 0, then no filtering), corner
#    frequency (smaller than the cut-off frequency defined above)
# 7. epicentral distance sampling used for Green's functions: d1, d2, delta_1, delta_2 [km],
#    where delta_1 and delta_2 are the smallest and largest intervals near d1 and d2,
#    respectively (sampling interval linearly increasing with distance)
#-------------------------------------------------------------------------------------------
    'F:\Automatic Inversion Codes\green\green_func\'
    'GreenInfo.dat'
    511.75   0.25
    -10.0  8.0
    0.00
    0        2.00
    0.0    1500.0    1.0    5.0
#-------------------------------------------------------------------------------------------
#
#	                LAYERED EARTH MODEL (IASP91)
#                   ============================
# 1. number of data lines of the layered model and selection for including
#    the physical dispersion according Kamamori & Anderson (1977)
#-------------------------------------------------------------------------------------------
    19     0
#-------------------------------------------------------------------------------------------
#
#	MULTILAYERED MODEL PARAMETERS (crust1.0)
#	=====================================
# no depth[km] vp[km/s] vs[km/s] ro[g/cm^3]    qp       qs
#-------------------------------------------------------------------------------------------
   1     0.00	  6.0000    3.5000    2.7200   855.66   599.99
   2     2.05     6.0000    3.5000    2.7200   855.66   599.99
   3     2.05     6.6000    3.8000    2.8600   855.66   599.99
   4     6.04	  6.6000    3.8000    2.8600   855.66   599.99
   5     6.04	  7.1000    3.9000    3.0500   855.66   599.99
   6    12.03	  7.1000    3.9000    3.0500   855.66   599.99
   7    12.03	  7.9000    4.4000    3.2600   855.66   599.99
   8    22.00	  7.9000    4.4000    3.2600   855.66   599.99
   9   120.00     8.0500    4.6000    3.4500   855.66   599.99
  10   165.00     8.1750    4.7198    3.4711   855.66   599.99
  11   210.00     8.3007    4.7924    3.5243   855.66   599.99
  12   260.00     8.4822    5.0027    3.5663   855.66   599.99
  13   310.00     8.6650    5.1082    3.6110   855.66   599.99
  14   360.00     8.8476    5.3138    3.6577   855.66   599.99
  15   410.00     9.0302    5.2136    3.7068   855.66   599.99
  16   410.00     9.3601    5.4041    3.9317   855.66   599.99
  17   460.00     9.5280    5.5010    3.9273   855.66   599.99
  18   510.00     9.6962    5.5981    3.9233   855.66   599.99
  19   560.00     9.8640    5.6950    3.9218   855.66   599.99
#---------------------------------end of all inputs-----------------------------------------
